array [1..2] of int: X_INTRODUCED_10_ = [1,-1];
array [1..4] of int: X_INTRODUCED_54_ = [0,633,257,91];
array [1..4] of int: X_INTRODUCED_56_ = [633,0,390,661];
array [1..4] of int: X_INTRODUCED_58_ = [257,390,0,228];
array [1..4] of int: X_INTRODUCED_60_ = [91,661,228,0];
array [1..5] of int: X_INTRODUCED_63_ = [1,-1,-1,-1,-1];
var 2..4: X_INTRODUCED_0_;
var {1,3,4}: X_INTRODUCED_1_;
var {1,2,4}: X_INTRODUCED_2_;
var 1..3: X_INTRODUCED_3_;
var 0..633: X_INTRODUCED_4_:: is_defined_var;
var 0..661: X_INTRODUCED_5_:: is_defined_var;
var 0..390: X_INTRODUCED_6_:: is_defined_var;
var 0..661: X_INTRODUCED_7_:: is_defined_var;
var 0..2345: obj:: output_var:: is_defined_var;
var 1..4: X_INTRODUCED_12_ ::var_is_introduced ;
var 1..4: X_INTRODUCED_13_ ::var_is_introduced ;
var 1..4: X_INTRODUCED_14_ ::var_is_introduced ;
var bool: X_INTRODUCED_19_ ::var_is_introduced :: is_defined_var;
var 1..4: X_INTRODUCED_20_ ::var_is_introduced :: is_defined_var;
var bool: X_INTRODUCED_28_ ::var_is_introduced :: is_defined_var;
var bool: X_INTRODUCED_29_ ::var_is_introduced :: is_defined_var;
var bool: X_INTRODUCED_31_ ::var_is_introduced :: is_defined_var;
var 1..4: X_INTRODUCED_32_ ::var_is_introduced :: is_defined_var;
var bool: X_INTRODUCED_40_ ::var_is_introduced :: is_defined_var;
var bool: X_INTRODUCED_41_ ::var_is_introduced :: is_defined_var;
var bool: X_INTRODUCED_43_ ::var_is_introduced :: is_defined_var;
var 1..4: X_INTRODUCED_44_ ::var_is_introduced :: is_defined_var;
var bool: X_INTRODUCED_52_ ::var_is_introduced :: is_defined_var;
var bool: X_INTRODUCED_53_ ::var_is_introduced :: is_defined_var;
array [1..4] of var int: succ:: output_array([1..4]) = [X_INTRODUCED_0_,X_INTRODUCED_1_,X_INTRODUCED_2_,X_INTRODUCED_3_];
array [1..4] of var int: X_INTRODUCED_9_ ::var_is_introduced  = [1,X_INTRODUCED_12_,X_INTRODUCED_13_,X_INTRODUCED_14_];
constraint int_lin_ne(X_INTRODUCED_10_,[X_INTRODUCED_0_,X_INTRODUCED_1_],0);
constraint int_lin_ne(X_INTRODUCED_10_,[X_INTRODUCED_0_,X_INTRODUCED_2_],0);
constraint int_lin_ne(X_INTRODUCED_10_,[X_INTRODUCED_0_,X_INTRODUCED_3_],0);
constraint int_lin_ne(X_INTRODUCED_10_,[X_INTRODUCED_1_,X_INTRODUCED_2_],0);
constraint int_lin_ne(X_INTRODUCED_10_,[X_INTRODUCED_1_,X_INTRODUCED_3_],0);
constraint int_lin_ne(X_INTRODUCED_10_,[X_INTRODUCED_2_,X_INTRODUCED_3_],0);
constraint int_lin_ne([-1],[X_INTRODUCED_12_],-1);
constraint int_lin_ne([-1],[X_INTRODUCED_13_],-1);
constraint int_lin_ne([-1],[X_INTRODUCED_14_],-1);
constraint int_lin_ne(X_INTRODUCED_10_,[X_INTRODUCED_12_,X_INTRODUCED_13_],0);
constraint int_lin_ne(X_INTRODUCED_10_,[X_INTRODUCED_12_,X_INTRODUCED_14_],0);
constraint int_lin_ne(X_INTRODUCED_10_,[X_INTRODUCED_13_,X_INTRODUCED_14_],0);
constraint array_var_int_element(X_INTRODUCED_0_,X_INTRODUCED_9_,2);
constraint int_lin_eq(X_INTRODUCED_10_,[2,1],1);
constraint array_var_int_element(X_INTRODUCED_1_,X_INTRODUCED_9_,X_INTRODUCED_20_):: defines_var(X_INTRODUCED_20_);
constraint bool_clause([X_INTRODUCED_28_],[X_INTRODUCED_19_]);
constraint array_bool_or([X_INTRODUCED_19_,X_INTRODUCED_29_],true);
constraint array_var_int_element(X_INTRODUCED_2_,X_INTRODUCED_9_,X_INTRODUCED_32_):: defines_var(X_INTRODUCED_32_);
constraint bool_clause([X_INTRODUCED_40_],[X_INTRODUCED_31_]);
constraint array_bool_or([X_INTRODUCED_31_,X_INTRODUCED_41_],true);
constraint array_var_int_element(X_INTRODUCED_3_,X_INTRODUCED_9_,X_INTRODUCED_44_):: defines_var(X_INTRODUCED_44_);
constraint bool_clause([X_INTRODUCED_52_],[X_INTRODUCED_43_]);
constraint array_bool_or([X_INTRODUCED_43_,X_INTRODUCED_53_],true);
constraint array_int_element(X_INTRODUCED_0_,X_INTRODUCED_54_,X_INTRODUCED_4_):: defines_var(X_INTRODUCED_4_);
constraint array_int_element(X_INTRODUCED_1_,X_INTRODUCED_56_,X_INTRODUCED_5_):: defines_var(X_INTRODUCED_5_);
constraint array_int_element(X_INTRODUCED_2_,X_INTRODUCED_58_,X_INTRODUCED_6_):: defines_var(X_INTRODUCED_6_);
constraint array_int_element(X_INTRODUCED_3_,X_INTRODUCED_60_,X_INTRODUCED_7_):: defines_var(X_INTRODUCED_7_);
constraint int_lin_eq(X_INTRODUCED_63_,[obj,X_INTRODUCED_4_,X_INTRODUCED_5_,X_INTRODUCED_6_,X_INTRODUCED_7_],0):: defines_var(obj);
constraint int_eq_reif(X_INTRODUCED_12_,4,X_INTRODUCED_19_):: defines_var(X_INTRODUCED_19_);
constraint int_eq_reif(X_INTRODUCED_20_,1,X_INTRODUCED_28_):: defines_var(X_INTRODUCED_28_);
constraint int_lin_eq_reif(X_INTRODUCED_10_,[X_INTRODUCED_20_,X_INTRODUCED_12_],1,X_INTRODUCED_29_):: defines_var(X_INTRODUCED_29_);
constraint int_eq_reif(X_INTRODUCED_13_,4,X_INTRODUCED_31_):: defines_var(X_INTRODUCED_31_);
constraint int_eq_reif(X_INTRODUCED_32_,1,X_INTRODUCED_40_):: defines_var(X_INTRODUCED_40_);
constraint int_lin_eq_reif(X_INTRODUCED_10_,[X_INTRODUCED_32_,X_INTRODUCED_13_],1,X_INTRODUCED_41_):: defines_var(X_INTRODUCED_41_);
constraint int_eq_reif(X_INTRODUCED_14_,4,X_INTRODUCED_43_):: defines_var(X_INTRODUCED_43_);
constraint int_eq_reif(X_INTRODUCED_44_,1,X_INTRODUCED_52_):: defines_var(X_INTRODUCED_52_);
constraint int_lin_eq_reif(X_INTRODUCED_10_,[X_INTRODUCED_44_,X_INTRODUCED_14_],1,X_INTRODUCED_53_):: defines_var(X_INTRODUCED_53_);
solve :: int_search(succ,first_fail,indomain_min,complete) minimize obj;
